solving instance uflp nlass gunluk ../../../../../instances/uflp/gunluk/gunluk-20-40-2.txt sincos
Couenne 0.5.8 -- an Open-Source solver for Mixed Integer Nonlinear Optimization
Mailing list: couenne@list.coin-or.org
Instructions: http://www.coin-or.org/Couenne
couenne: 
ANALYSIS TEST: Reformulating problem: 2.1 seconds
NLP0012I 
              Num      Status      Obj             It       time                 Location
NLP0014I             1         OPT 417.72354     1274 62.704666
NLP0014I             2      INFEAS 0.048510706       68 1.511039
Loaded instance "/tmp/jl_kxwa2y/model.nl"
Constraints:         2440
Variables:           2420 (820 integer)
Auxiliaries:         5640 (0 integer)

Coin0506I Presolve 8150 (-3891) rows, 4020 (-4040) columns and 21302 (-6758) elements
Clp0006I 0  Obj -1703.1302 Primal inf 7.4100723e+13 (2479)
Clp0006I 238  Obj -1703.1302 Primal inf 4.9042737e+13 (2415)
Clp0006I 476  Obj -1703.1302 Primal inf 3.154129e+13 (2356)
Clp0006I 714  Obj -1703.1302 Primal inf 1.7084035e+13 (2285)
Clp0006I 952  Obj -1703.1302 Primal inf 5.8306501e+12 (2219)
Clp0006I 1190  Obj -1703.1302 Primal inf 23296.148 (2160)
Clp0006I 1428  Obj -1703.1302 Primal inf 7104.8498 (1952)
Clp0006I 1666  Obj -1703.1302 Primal inf 4912.6143 (2004)
Clp0006I 1904  Obj -1703.1302 Primal inf 4742.2092 (1940)
Clp0006I 2142  Obj -1703.1302 Primal inf 4586.8996 (1868)
Clp0006I 2380  Obj -1683.1612 Primal inf 4870.3161 (1808)
Clp0006I 2618  Obj -1572.703 Primal inf 5920.9923 (1761)
Clp0006I 2856  Obj -1413.4947 Primal inf 6456.8544 (1677)
Clp0006I 3094  Obj -1136.8902 Primal inf 5974.7903 (1519)
Clp0006I 3332  Obj -803.12046 Primal inf 5170.9608 (1323)
Clp0006I 3570  Obj -685.4588 Primal inf 608.85821 (846)
Clp0006I 3808  Obj -674.03827 Primal inf 365.90479 (868)
Clp0006I 4046  Obj -660.02546 Primal inf 292.70513 (913)
Clp0006I 4284  Obj -647.75448 Primal inf 33.057329 (682)
Clp0006I 4522  Obj -618.21738 Primal inf 71.396989 (253)
Clp0006I 4760  Obj -609.76333 Primal inf 2.5019904 (41)
Clp0006I 4798  Obj -609.68729
Clp0000I Optimal - objective value -609.68729
Clp0032I Optimal objective -609.6872878 - 4798 iterations time 0.312, Presolve 0.04
Clp0000I Optimal - objective value -609.68729
NLP Heuristic: time limit reached.
Clp0000I Optimal - objective value -609.68729
Optimality Based BT: 682 improved bounds
Probing: 800 improved bounds
NLP Heuristic: Couenne: new cutoff value 1.1114618692e+03 (743.892 seconds)
solution found, obj. 1111.46
Cbc0012I Integer solution of 1111.4619 found by Couenne Rounding NLP after 0 iterations and 0 nodes (639.56 seconds)
Cbc0013I At root node, 0 cuts changed objective from -609.68729 to -609.68729 in 1 passes
Cbc0014I Cut generator 0 (Couenne convexifier cuts) - 0 row cuts average 0.0 elements, 1 column cuts (1 active)
Cbc0010I After 0 nodes, 1 on tree, 1111.4619 best solution, best possible -609.68729 (639.59 seconds)
Optimality Based BT: 47 improved bounds
Optimality Based BT: 781 improved bounds
Couenne: new cutoff value 1.0850652568e+03 (2529.71 seconds)
Cbc0012I Integer solution of 1085.0653 found by Couenne Rounding NLP after 603 iterations and 2 nodes (2425.38 seconds)
Optimality Based BT: 730 improved bounds
Couenne: new cutoff value 1.0456934689e+03 (3307.63 seconds)
Cbc0012I Integer solution of 1045.6935 found by Couenne Rounding NLP after 634 iterations and 3 nodes (3203.30 seconds)
Optimality Based BT: 764 improved bounds
Cbc0020I Exiting on maximum time
Cbc0005I Partial search - best objective 1045.6935 (best possible -606.0403), took 635 iterations and 4 nodes (3495.72 seconds)
Cbc0035I Maximum depth 2, 0 variables fixed on reduced cost
Clp1001I Initial range of elements is 0.011878517 to 100
Clp1003I Final range of elements is 0.18655535 to 5.3603396
Clp0022I Absolute values of scaled rhs range from 0.027026148 to 8.4149843, minimum gap 1e+100
Clp0020I Absolute values of scaled objective range from 29.541429 to 29.541429
Clp0021I Absolute values of scaled bounds range from 0.026953548 to 2.7080613e+11, minimum gap 0.1906132
Clp0006I 0  Obj 928.8342 Primal inf 3.9641612e-05 (111)
Clp0006I 0  Obj 928.8342 Primal inf 3.9641612e-05 (111)
Clp0006I 0  Obj 928.8342 Primal inf 3.9641612e-05 (111)
Clp0006I 0  Obj 928.8342 Primal inf 3.9641612e-05 (111)
Clp0006I 0  Obj 928.8342 Primal inf 3.9641612e-05 (111)
Clp0006I 0  Obj 928.8342 Primal inf 3.9641612e-05 (111)
Clp0006I 0  Obj 928.8342 Primal inf 3.9641612e-05 (111)
Clp0001I Primal infeasible - objective value 928.8342

 	"Not finished"

Linearization cuts added at root node:      12041
Linearization cuts added in total:          12041  (separation time: 0.123896s)
Total solve time:                          3496.4s (3496.4s in branch-and-bound)
Lower bound:                              -606.04
Upper bound:                              1045.69  (gap: 272.10%)
Branch-and-bound nodes:                         4
Stats: /tmp/jl_kxwa2y/model.nl 2420 [var]  820 [int] 2440 [con] 5640 [aux]  12041 [root]    12041 [tot] 0.123896 [sep]   3496.4 [time]  3496.41 [bb]        -6.060403e+02 [lower]         1.045693e+03 [upper]       4 [nodes]
Performance of                           FBBT:	   0.433528s,        8 runs. fix:          0 shrnk:    100.125 ubd:          0 2ubd:          0 infeas:          0
Performance of                           OBBT:	    419.445s,        5 runs. fix:        1.4 shrnk:    10.6891 ubd:          0 2ubd:          0 infeas:          0
ERROR: LoadError: MathOptInterface.GetAttributeNotAllowed{MathOptInterface.ObjectiveBound}: Getting attribute MathOptInterface.ObjectiveBound() cannot be performed: AmplNLWriter.Optimizer does not support getting the attribute MathOptInterface.ObjectiveBound(). You may want to use a `CachingOptimizer` in `AUTOMATIC` mode or you may need to call `reset_optimizer` before doing this operation if the `CachingOptimizer` is in `MANUAL` mode.
Stacktrace:
  [1] get_fallback(model::AmplNLWriter.Optimizer, attr::MathOptInterface.ObjectiveBound)
    @ MathOptInterface ~/.julia/packages/MathOptInterface/gLl4d/src/attributes.jl:409
  [2] get(::AmplNLWriter.Optimizer, ::MathOptInterface.ObjectiveBound)
    @ MathOptInterface ~/.julia/packages/MathOptInterface/gLl4d/src/attributes.jl:390
  [3] _get_model_attribute(model::MathOptInterface.Utilities.CachingOptimizer{AmplNLWriter.Optimizer, MathOptInterface.Utilities.UniversalFallback{MathOptInterface.Utilities.Model{Float64}}}, attr::MathOptInterface.ObjectiveBound)
    @ MathOptInterface.Utilities ~/.julia/packages/MathOptInterface/gLl4d/src/Utilities/cachingoptimizer.jl:865
  [4] get(model::MathOptInterface.Utilities.CachingOptimizer{AmplNLWriter.Optimizer, MathOptInterface.Utilities.UniversalFallback{MathOptInterface.Utilities.Model{Float64}}}, attr::MathOptInterface.ObjectiveBound)
    @ MathOptInterface.Utilities ~/.julia/packages/MathOptInterface/gLl4d/src/Utilities/cachingoptimizer.jl:900
  [5] get(b::MathOptInterface.Bridges.LazyBridgeOptimizer{MathOptInterface.Utilities.CachingOptimizer{AmplNLWriter.Optimizer, MathOptInterface.Utilities.UniversalFallback{MathOptInterface.Utilities.Model{Float64}}}}, attr::MathOptInterface.ObjectiveBound)
    @ MathOptInterface.Bridges ~/.julia/packages/MathOptInterface/gLl4d/src/Bridges/bridge_optimizer.jl:889
  [6] _get_model_attribute(model::MathOptInterface.Utilities.CachingOptimizer{MathOptInterface.Bridges.LazyBridgeOptimizer{MathOptInterface.Utilities.CachingOptimizer{AmplNLWriter.Optimizer, MathOptInterface.Utilities.UniversalFallback{MathOptInterface.Utilities.Model{Float64}}}}, MathOptInterface.Utilities.UniversalFallback{MathOptInterface.Utilities.Model{Float64}}}, attr::MathOptInterface.ObjectiveBound)
    @ MathOptInterface.Utilities ~/.julia/packages/MathOptInterface/gLl4d/src/Utilities/cachingoptimizer.jl:865
  [7] get(model::MathOptInterface.Utilities.CachingOptimizer{MathOptInterface.Bridges.LazyBridgeOptimizer{MathOptInterface.Utilities.CachingOptimizer{AmplNLWriter.Optimizer, MathOptInterface.Utilities.UniversalFallback{MathOptInterface.Utilities.Model{Float64}}}}, MathOptInterface.Utilities.UniversalFallback{MathOptInterface.Utilities.Model{Float64}}}, attr::MathOptInterface.ObjectiveBound)
    @ MathOptInterface.Utilities ~/.julia/packages/MathOptInterface/gLl4d/src/Utilities/cachingoptimizer.jl:900
  [8] _moi_get_result(model::MathOptInterface.Utilities.CachingOptimizer{MathOptInterface.Bridges.LazyBridgeOptimizer{MathOptInterface.Utilities.CachingOptimizer{AmplNLWriter.Optimizer, MathOptInterface.Utilities.UniversalFallback{MathOptInterface.Utilities.Model{Float64}}}}, MathOptInterface.Utilities.UniversalFallback{MathOptInterface.Utilities.Model{Float64}}}, args::MathOptInterface.ObjectiveBound)
    @ JuMP ~/.julia/packages/JuMP/i68GU/src/optimizer_interface.jl:1053
  [9] get(model::JuMP.Model, attr::MathOptInterface.ObjectiveBound)
    @ JuMP ~/.julia/packages/JuMP/i68GU/src/optimizer_interface.jl:1073
 [10] objective_bound(model::JuMP.Model)
    @ JuMP ~/.julia/packages/JuMP/i68GU/src/objective.jl:78
 [11] nl_uflp_nlass(filename::String, cost::Symbol, solver::AmplNLWriter.Optimizer, solver_params::Vector{Any}; solve::Bool, write_nl::Bool, with_cap_constraint::Bool)
    @ IterativePWLB ~/git/ipwlb/code/sources/IterativePWLB/src/nlsolver.jl:885
 [12] top-level scope
    @ ~/git/ipwlb/code/sources/IterativePWLB/test/couenne/uflp_nlass/script.jl:14
in expression starting at /home/ccontard/git/ipwlb/code/sources/IterativePWLB/test/couenne/uflp_nlass/script.jl:14
Generating Gunluk and Lee data file ../../../../../instances/uflp/gunluk/gunluk-20-40-2.txt
